p wcnf 193 386 387 
1 -91 52 0 
1 -167 -80 0 
1 126 -89 0 
1 110 106 0 
1 -69 108 0 
1 -137 -182 0 
1 -188 -141 0 
1 -157 77 0 
1 -114 -125 0 
1 60 117 0 
1 98 -109 0 
1 145 86 0 
1 -153 56 0 
1 -140 82 0 
1 93 179 0 
1 -90 100 0 
1 -9 2 0 
1 152 -1 0 
1 62 -40 0 
1 -76 68 0 
1 -16 -40 0 
1 -16 -83 0 
1 85 -152 0 
1 -72 -82 0 
1 -6 139 0 
1 -28 -132 0 
1 79 -97 0 
1 107 186 0 
1 23 -193 0 
1 -87 150 0 
1 -83 183 0 
1 -138 87 0 
1 114 -63 0 
1 -67 -117 0 
1 147 -52 0 
1 -151 -180 0 
1 12 106 0 
1 -34 -112 0 
1 4 -117 0 
1 -170 -35 0 
1 -33 134 0 
1 -60 160 0 
1 80 93 0 
1 -129 102 0 
1 48 13 0 
1 -133 -19 0 
1 119 -46 0 
1 -69 -36 0 
1 92 112 0 
1 -110 184 0 
1 -155 -50 0 
1 152 -1 0 
1 -137 -84 0 
1 -140 -157 0 
1 -22 -145 0 
1 -177 15 0 
1 90 -189 0 
1 25 59 0 
1 -41 -63 0 
1 -7 -117 0 
1 -96 33 0 
1 51 -69 0 
1 128 169 0 
1 -183 21 0 
1 24 -68 0 
1 -41 -133 0 
1 79 121 0 
1 132 130 0 
1 74 -169 0 
1 97 137 0 
1 -146 -50 0 
1 -16 174 0 
1 97 -48 0 
1 78 -123 0 
1 -37 -104 0 
1 -117 139 0 
1 77 185 0 
1 30 84 0 
1 29 31 0 
1 182 -55 0 
1 -68 -62 0 
1 193 -113 0 
1 98 -83 0 
1 174 130 0 
1 81 -68 0 
1 161 -176 0 
1 69 165 0 
1 -74 95 0 
1 -173 175 0 
1 -31 177 0 
1 182 109 0 
1 69 -172 0 
1 -55 -90 0 
1 33 44 0 
1 -33 161 0 
1 -66 -103 0 
1 -167 -135 0 
1 98 96 0 
1 163 -193 0 
1 135 145 0 
1 112 5 0 
1 -179 -144 0 
1 136 -148 0 
1 184 155 0 
1 38 23 0 
1 -106 -2 0 
1 146 -88 0 
1 -128 78 0 
1 -159 -13 0 
1 12 -146 0 
1 32 -123 0 
1 24 25 0 
1 67 46 0 
1 83 104 0 
1 176 174 0 
1 188 -135 0 
1 72 149 0 
1 178 64 0 
1 5 -19 0 
1 181 178 0 
1 32 132 0 
1 147 -87 0 
1 -62 25 0 
1 84 158 0 
1 -61 -177 0 
1 29 188 0 
1 114 77 0 
1 53 -188 0 
1 -35 -103 0 
1 173 -60 0 
1 -132 116 0 
1 76 -184 0 
1 186 148 0 
1 181 21 0 
1 56 -52 0 
1 43 29 0 
1 -115 -103 0 
1 153 55 0 
1 -19 52 0 
1 -3 -31 0 
1 -35 -165 0 
1 -167 -95 0 
1 82 -74 0 
1 119 -107 0 
1 -133 186 0 
1 116 188 0 
1 -99 152 0 
1 -57 -123 0 
1 19 155 0 
1 115 112 0 
1 107 58 0 
1 110 43 0 
1 44 -139 0 
1 159 99 0 
1 -192 112 0 
1 -50 75 0 
1 31 -66 0 
1 -88 137 0 
1 -96 97 0 
1 14 -79 0 
1 14 -111 0 
1 -45 -8 0 
1 -49 23 0 
1 62 108 0 
1 -172 122 0 
1 -75 -54 0 
1 96 -17 0 
1 -170 185 0 
1 92 177 0 
1 -51 34 0 
1 -122 -1 0 
1 -77 78 0 
1 -82 -162 0 
1 -10 105 0 
1 -161 18 0 
1 7 117 0 
1 20 -57 0 
1 -116 -147 0 
1 139 -31 0 
1 -63 -48 0 
1 81 -143 0 
1 -36 -20 0 
1 -121 51 0 
1 80 180 0 
1 -174 -158 0 
1 -92 -15 0 
1 -187 138 0 
1 -69 192 0 
1 155 -77 0 
1 -133 112 0 
1 27 144 0 
1 4 66 0 
1 -79 177 0 
1 65 2 0 
1 -4 -75 0 
1 15 73 0 
1 -144 19 0 
1 128 24 0 
1 82 -124 0 
1 27 71 0 
1 90 -123 0 
1 133 -61 0 
1 134 124 0 
1 -53 -125 0 
1 111 -48 0 
1 -177 39 0 
1 -146 85 0 
1 164 158 0 
1 112 51 0 
1 -119 2 0 
1 -160 126 0 
1 79 111 0 
1 -8 -25 0 
1 -105 -189 0 
1 77 94 0 
1 -167 24 0 
1 -8 173 0 
1 -142 27 0 
1 179 -152 0 
1 -17 -147 0 
1 21 -18 0 
1 193 -142 0 
1 137 -173 0 
1 190 -151 0 
1 -41 131 0 
1 -126 -102 0 
1 -158 -122 0 
1 178 -80 0 
1 -128 54 0 
1 -34 126 0 
1 130 -32 0 
1 -131 -172 0 
1 80 -35 0 
1 29 3 0 
1 -85 105 0 
1 21 -108 0 
1 174 -88 0 
1 97 88 0 
1 30 -39 0 
1 -162 135 0 
1 -146 -127 0 
1 29 -177 0 
1 -30 -145 0 
1 -80 -141 0 
1 159 14 0 
1 -99 -52 0 
1 141 112 0 
1 8 -19 0 
1 16 -56 0 
1 153 106 0 
1 170 -66 0 
1 -156 82 0 
1 -186 -6 0 
1 34 75 0 
1 44 -135 0 
1 -137 15 0 
1 -88 139 0 
1 24 185 0 
1 59 45 0 
1 128 192 0 
1 -110 -29 0 
1 -55 -82 0 
1 170 -182 0 
1 -80 -98 0 
1 -35 -33 0 
1 114 109 0 
1 86 -177 0 
1 96 -38 0 
1 6 102 0 
1 -160 -188 0 
1 134 -133 0 
1 -147 -82 0 
1 -137 -4 0 
1 71 -57 0 
1 -3 105 0 
1 -52 51 0 
1 -48 140 0 
1 80 -131 0 
1 -53 7 0 
1 47 -187 0 
1 -107 32 0 
1 -93 83 0 
1 44 84 0 
1 2 -118 0 
1 -170 -62 0 
1 142 -73 0 
1 85 -96 0 
1 -4 170 0 
1 32 -95 0 
1 178 -37 0 
1 -6 -30 0 
1 -11 114 0 
1 27 -116 0 
1 121 69 0 
1 58 156 0 
1 -104 -68 0 
1 31 -43 0 
1 180 -177 0 
1 -136 -61 0 
1 123 -39 0 
1 3 -62 0 
1 -173 138 0 
1 47 -167 0 
1 -136 176 0 
1 172 88 0 
1 -142 159 0 
1 62 -63 0 
1 57 -80 0 
1 -171 -139 0 
1 -138 -56 0 
1 28 -115 0 
1 -46 -131 0 
1 -3 12 0 
1 -33 -128 0 
1 179 -158 0 
1 69 -56 0 
1 -15 62 0 
1 39 -115 0 
1 187 105 0 
1 -160 -145 0 
1 128 -71 0 
1 -156 -90 0 
1 159 46 0 
1 -91 -127 0 
1 -159 56 0 
1 44 -47 0 
1 170 130 0 
1 131 -1 0 
1 179 152 0 
1 -10 133 0 
1 103 41 0 
1 10 186 0 
1 6 88 0 
1 133 -66 0 
1 3 -154 0 
1 -96 -93 0 
1 52 177 0 
1 -49 -130 0 
1 -5 -90 0 
1 -122 17 0 
1 -86 -163 0 
1 19 31 0 
1 -10 182 0 
1 143 -27 0 
1 102 -161 0 
1 124 -56 0 
1 -1 155 0 
1 -151 144 0 
1 -129 108 0 
1 155 -190 0 
1 -79 96 0 
1 48 97 0 
1 51 41 0 
1 163 -7 0 
1 87 -83 0 
1 133 -11 0 
1 -151 39 0 
1 127 -167 0 
1 130 139 0 
1 -107 -53 0 
1 -122 25 0 
1 35 -122 0 
1 154 -74 0 
1 -56 -165 0 
1 95 -17 0 
1 -151 -140 0 
1 -114 -64 0 
1 53 77 0 
1 -146 156 0 
1 163 192 0 
1 152 37 0 
1 -33 -141 0 
1 -108 -18 0 
1 -109 -99 0 
1 -108 -32 0 
1 28 -47 0 
1 -193 55 0 
1 7 -49 0 
1 140 -98 0 
1 -62 65 0 
1 34 111 0 
1 3 80 0 
1 105 184 0 
1 31 70 0 
1 134 13 0 
1 -40 -105 0 
